
Gurobi 10.0.1 (linux64) logging started Sat 12 Aug 2023 10:12:42 PM CDT

Set parameter LogFile to value "/home/dlcole3/graph_abstraction/plasmoexamples/SHP_serial/SHP_reserve_requirements/gurobi_logs/logfile16.log"
Set parameter NodefileStart to value 0.0005
Set parameter TimeLimit to value 36000
Gurobi Optimizer version 10.0.1 build v10.0.1rc0 (linux64)

CPU model: Intel(R) Xeon(R) CPU E5-2698 v4 @ 2.20GHz, instruction set [SSE2|AVX|AVX2]
Thread count: 40 physical cores, 80 logical processors, using up to 8 threads


Warning: excessive time spent in model updates.
Consider calling update less frequently.

Optimize a model with 1105538 rows, 641709 columns and 4644125 nonzeros
Model fingerprint: 0xb7cc3c04
Variable types: 599982 continuous, 41727 integer (41727 binary)
Coefficient statistics:
  Matrix range     [5e-02, 2e+04]
  Objective range  [2e-01, 8e+04]
  Bounds range     [5e-02, 2e+04]
  RHS range        [1e-14, 7e+03]
Presolve removed 263378 rows and 118378 columns (presolve time = 5s) ...
Presolve removed 277072 rows and 125014 columns (presolve time = 10s) ...
Presolve removed 279269 rows and 128190 columns (presolve time = 15s) ...
Presolve removed 285150 rows and 132823 columns (presolve time = 20s) ...
Presolve removed 292052 rows and 133027 columns (presolve time = 25s) ...
Presolve removed 293420 rows and 133841 columns (presolve time = 30s) ...
Presolve removed 293420 rows and 133951 columns (presolve time = 35s) ...
Presolve removed 293490 rows and 133991 columns (presolve time = 40s) ...
Sparsify removed 121276 nonzeros (3%)
Presolve removed 293490 rows and 133395 columns
Presolve time: 41.96s
Presolved: 812048 rows, 508314 columns, 3879823 nonzeros
Variable types: 475018 continuous, 33296 integer (33249 binary)

Deterministic concurrent LP optimizer: primal simplex, dual simplex, and barrier
Showing barrier log only...

Root barrier log...

Elapsed ordering time = 5s
Elapsed ordering time = 18s
Elapsed ordering time = 21s
Elapsed ordering time = 25s
Elapsed ordering time = 31s
Elapsed ordering time = 35s
Elapsed ordering time = 40s
Elapsed ordering time = 45s
Elapsed ordering time = 46s
Elapsed ordering time = 50s
Elapsed ordering time = 56s
Elapsed ordering time = 60s
Elapsed ordering time = 65s
Ordering time: 67.63s

Barrier statistics:
 Dense cols : 124
 AA' NZ     : 2.245e+07
 Factor NZ  : 3.331e+08 (roughly 3.0 GB of memory)
 Factor Ops : 1.586e+12 (roughly 14 seconds per iteration)
 Threads    : 5

                  Objective                Residual
Iter       Primal          Dual         Primal    Dual     Compl     Time
   0  -2.11429837e+11 -1.80587438e+13  1.24e+04 2.12e+04  1.16e+08   132s
   1  -1.96207020e+11 -1.76448128e+13  1.17e+04 3.13e+06  1.09e+08   140s
   2  -1.32176250e+11 -1.23865687e+13  8.05e+03 9.10e+05  6.57e+07   153s
   3  -5.80810121e+10 -7.06239463e+12  3.79e+03 9.58e+04  3.00e+07   166s
   4  -9.39340419e+09 -2.51572170e+12  8.97e+02 3.50e+00  6.87e+06   180s
   5   1.90175278e+09 -1.15147258e+12  2.50e+02 7.04e-01  1.99e+06   194s
   6   4.91512194e+09 -4.95872057e+11  9.34e+01 1.94e-01  6.76e+05   208s
   7   5.90034508e+09 -2.13895158e+11  2.84e+01 1.07e-01  2.11e+05   223s
   8   4.98462759e+09 -6.82424352e+10  9.63e+00 4.07e-02  5.89e+04   238s
   9   2.48512694e+09 -2.34324947e+10  3.01e+00 1.67e-02  1.78e+04   253s
  10   1.25550674e+09 -1.29478604e+10  1.46e+00 8.65e-03  9.22e+03   267s
  11   2.46696635e+08 -2.49416284e+09  1.85e-01 2.06e-03  1.66e+03   285s
  12   9.38936915e+07 -2.20905161e+08  8.93e-03 1.51e-04  1.86e+02   303s
  13   7.37194799e+07 -1.96902075e+07  9.84e-04 9.38e-05  5.50e+01   322s
  14   6.53751445e+07  2.40165677e+07  3.49e-04 3.45e-04  2.44e+01   337s
  15   6.02973135e+07  4.38904899e+07  1.23e-04 7.76e-04  9.66e+00   354s
  16   5.78917144e+07  5.15096817e+07  5.42e-05 2.35e-04  3.76e+00   372s
  17   5.65516899e+07  5.41370979e+07  2.38e-05 5.58e-05  1.42e+00   389s
  18   5.61046717e+07  5.46182679e+07  1.46e-05 4.75e-05  8.75e-01   402s
  19   5.57204368e+07  5.49830734e+07  7.26e-06 2.49e-05  4.34e-01   417s
  20   5.55328697e+07  5.51451809e+07  3.85e-06 1.17e-05  2.28e-01   432s
  21   5.54416904e+07  5.52213947e+07  2.24e-06 5.06e-06  1.30e-01   446s
  22   5.53984871e+07  5.52572274e+07  1.50e-06 3.26e-06  8.32e-02   460s
  23   5.53698399e+07  5.52785445e+07  1.03e-06 1.84e-06  5.38e-02   474s
  24   5.53513509e+07  5.52889359e+07  7.53e-07 1.20e-06  3.68e-02   488s
  25   5.53382255e+07  5.52931087e+07  7.95e-07 9.17e-07  2.66e-02   501s
  26   5.53325039e+07  5.52966706e+07  7.21e-07 6.81e-07  2.11e-02   515s
  27   5.53206273e+07  5.52993520e+07  2.49e-07 5.07e-07  1.25e-02   530s
  28   5.53157608e+07  5.53033454e+07  2.09e-07 2.63e-07  7.31e-03   548s
  29   5.53108123e+07  5.53069027e+07  3.09e-07 5.21e-08  2.30e-03   563s
  30   5.53086533e+07  5.53077809e+07  4.02e-07 7.90e-09  5.14e-04   584s
  31   5.53079837e+07  5.53079384e+07  6.48e-07 2.95e-09  2.67e-05   604s
  32   5.53079569e+07  5.53079564e+07  8.49e-09 4.25e-09  2.88e-07   618s
  33   5.53079567e+07  5.53079567e+07  6.24e-08 4.18e-09  9.37e-10   632s

Barrier solved model in 33 iterations and 632.01 seconds (552.92 work units)
Optimal objective 5.53079567e+07


Root crossover log...

  285641 DPushes remaining with DInf 2.2280182e-05               633s
   86934 DPushes remaining with DInf 3.1557967e-06               636s
   28915 DPushes remaining with DInf 3.1659285e-06               641s
    9908 DPushes remaining with DInf 0.0000000e+00               645s
       0 DPushes remaining with DInf 0.0000000e+00               649s

   18791 PPushes remaining with PInf 0.0000000e+00               650s
   12399 PPushes remaining with PInf 0.0000000e+00               650s
       0 PPushes remaining with PInf 0.0000000e+00               656s

  Push phase complete: Pinf 0.0000000e+00, Dinf 4.2948206e-07    656s


Root simplex log...

Iteration    Objective       Primal Inf.    Dual Inf.      Time
  138117    5.5307957e+07   0.000000e+00   0.000000e+00    657s
  138117    5.5307957e+07   0.000000e+00   0.000000e+00    658s
Waiting for other threads to finish...         725s
Concurrent spin time: 91.71s (can be avoided by choosing Method=3)

Solved with barrier

Root relaxation: objective 5.530796e+07, 138117 iterations, 703.46 seconds (538.44 work units)
Total elapsed time = 750.03s
Total elapsed time = 757.65s
Total elapsed time = 761.93s
Total elapsed time = 766.21s

    Nodes    |    Current Node    |     Objective Bounds      |     Work
 Expl Unexpl |  Obj  Depth IntInf | Incumbent    BestBd   Gap | It/Node Time

     0     0 5.5308e+07    0  384          - 5.5308e+07      -     -  783s
H    0     0                    5.683785e+07 5.5308e+07  2.69%     -  807s

Explored 1 nodes (138322 simplex iterations) in 808.11 seconds (617.39 work units)
Thread count was 8 (of 80 available processors)

Solution count 2: 5.68378e+07 5.68378e+07 

Optimal solution found (tolerance 5.00e-02)
Best objective 5.683784730118e+07, best bound 5.530795671136e+07, gap 2.6917%

User-callback calls 114751, time in user-callback 0.43 sec
